3
50
13897
[[560,277,624,943,543,865,493,752,321,859,975,788, 48,673,518,115, 72,562,406,501,999,958,335,216,131,756,505,492,369,971,445,782, 57,394,286,827,207, 16, 70,185,139,406,413,919,838,303,357,497,851,889],
 [722,972,241,722,733,568,720,631,173,  8,589,821,662,286,137,443,631,842,324,551,816,446, 51,522,309,985, 56,838,264,682,834,539, 88, 94,675,160,558,689,256,827,880,220,822,398, 18,675,772,359, 91,910],
 [431,644,368,798,605,315,518,236,165,313,664,730,636,295,302,503,620,747,906,486, 69,223,247,989, 15,795,125,375,470,829,991,178,686,205,  7,115,682,129,661,446,190,898,491,449, 59, 95,417,403,612,692]]
[942,708,411,307,708,446, 31,919,115,223,884,149,615,793, 46,387,977,288,986,301,667,298,595,694,199,319,279,347,431,410,737,957,855,898,634,700,567, 56,964,956,147,737,871,237,959,474, 93,958,981,539]